19 20
7 4 1
3 1 2
7 6 1
2 8 1
4 9 1
2 6 1
7 7 1
6 3 1
7 2 1
8 3 1
3 4 1
9 1 1
1 8 1
10 1 1
6 7 1
5 9 1
7 3 1
3 8 1
9 6 1
30 30 
30 30 
30 30 
30 30 
30 30 
30 30 
30 30 
30 30 
30 30 
30 30 
30 30 
30 30 
30 30 
30 30 
30 30 
30 30 
30 30 
30 30 
30 30 
30 30 
